32      10      
12      14      17      13      20      13      13      13      17      18      
0       0       0       0       0       0       0       0       0       0       0       11      2       3       4       5       7       8       9       12      13      14      17      
8       1       3       1       1       5       1       4       1       7       1       5       6       15      19      26      31      
7       6       3       7       6       1       6       2       1       12      13      5       11      15      16      18      25      
1       1       6       17      5       1       6       1       1       7       2       3       10      15      18      
8       1       1       1       7       7       4       1       1       4       1       3       15      16      23      
6       1       1       1       1       6       1       4       1       1       8       3       21      22      25      
1       1       5       1       1       7       4       1       1       1       1       2       15      23      
1       1       3       1       2       16      1       5       6       7       1       2       15      23      
6       1       1       12      1       6       6       1       6       3       1       2       15      24      
1       1       1       5       5       3       4       6       1       1       1       4       24      25      28      30      
3       3       9       1       1       1       1       1       1       10      3       3       20      24      30      
5       2       1       1       6       6       1       5       1       6       1       3       20      24      30      
2       11      9       14      1       7       4       1       5       1       4       4       26      27      29      30      
3       6       7       2       4       5       2       1       7       6       3       3       23      28      30      
10      5       1       2       1       2       2       3       5       1       8       2       20      30      
7       6       8       7       1       6       1       1       10      5       5       3       26      27      29      
1       4       1       3       6       1       6       3       1       1       3       3       25      28      30      
10      1       1       10      5       1       1       1       1       3       1       2       23      28      
3       1       7       9       10      1       7       1       1       1       16      1       20      
3       5       8       6       4       1       1       13      6       9       7       3       27      28      29      
1       3       1       6       1       5       4       2       1       7       3       3       27      28      30      
8       6       2       4       6       1       2       8       1       3       10      1       23      
1       1       1       1       1       7       1       5       1       1       13      1       24      
1       5       1       1       8       10      4       1       6       4       5       1       27      
1       6       7       1       1       1       1       1       1       7       7       1       29      
5       1       1       5       4       12      7       1       2       9       1       1       28      
1       1       8       2       2       1       5       2       6       1       5       1       32      
7       6       5       1       1       16      5       9       5       3       1       1       32      
3       1       1       4       4       5       1       1       12      1       8       1       32      
6       1       1       1       1       1       1       1       5       1       1       1       32      
10      1       1       1       1       8       8       12      1       5       1       1       32      
0       0       0       0       0       0       0       0       0       0       0       0       
